Solver command line: ['C:\\gurobi1102\\win64\\bin\\gurobi.bat']

Set parameter Username
Academic license - for non-commercial use only - expires 2025-06-25
Read LP format model from file C:\Users\danin\AppData\Local\Temp\tmp584_7q4g.pyomo.lp
Reading time = 0.13 seconds
x1: 16950 rows, 16875 columns, 109375 nonzeros
Set parameter Cuts to value 0
Set parameter Presolve to value 0
Set parameter TimeLimit to value 10
Set parameter Threads to value 6
Gurobi Optimizer version 11.0.2 build v11.0.2rc0 (win64 - Windows 11.0 (22631.2))

CPU model: AMD Ryzen 5 4600H with Radeon Graphics, instruction set [SSE2|AVX|AVX2]
Thread count: 6 physical cores, 12 logical processors, using up to 6 threads

Optimize a model with 16950 rows, 16875 columns and 109375 nonzeros
Model fingerprint: 0xe074d63e
Variable types: 625 continuous, 16250 integer (16250 binary)
Coefficient statistics:
  Matrix range     [1e+00, 3e+02]
  Objective range  [7e+00, 7e+01]
  Bounds range     [1e+00, 1e+00]
  RHS range        [1e+00, 2e+02]
Found heuristic solution: objective 1106.7907181
Variable types: 625 continuous, 16250 integer (16250 binary)
Deterministic concurrent LP optimizer: primal and dual simplex
Showing primal log only...

Concurrent spin time: 0.02s

Solved with dual simplex

Root relaxation: objective 2.925360e+02, 718 iterations, 0.11 seconds (0.10 work units)

    Nodes    |    Current Node    |     Objective Bounds      |     Work
 Expl Unexpl |  Obj  Depth IntInf | Incumbent    BestBd   Gap | It/Node Time

     0     0  292.53603    0   50 1106.79072  292.53603  73.6%     -    0s
H    0     0                     820.8184066  292.53603  64.4%     -    0s
     0     0  292.53603    0   50  820.81841  292.53603  64.4%     -    0s
     0     2  292.54855    0   50  820.81841  292.54855  64.4%     -    0s
H   31    36                     767.6125495  292.54855  61.9%   123    2s
H   31    36                     765.1573214  292.54855  61.8%   123    2s
H   32    36                     706.8327148  292.54855  58.6%   120    2s
H   67    71                     676.6350664  292.54855  56.8%  89.1    3s
H   67    71                     610.5186590  292.54855  52.1%  89.1    3s
H   68    71                     579.7292880  292.54855  49.5%  88.0    3s
H  101   108                     549.5316396  292.54855  46.8%  71.6    4s
H  103   108                     495.1327555  292.54855  40.9%  74.8    4s
   149   163  328.25736   18   54  495.13276  292.54855  40.9%  63.6    5s
H  176   180                     489.0467808  292.54855  40.2%  56.2    6s
H  181   180                     480.9906199  292.54855  39.2%  57.0    6s
H  183   186                     475.3366216  292.54855  38.5%  57.2    7s
   218   222  340.24229   24   54  475.33662  292.54855  38.5%  52.4   10s
H  220   222                     461.2600710  292.54855  36.6%  52.1   10s
H  223   222                     446.9005195  292.54855  34.5%  51.5   10s

Explored 224 nodes (12801 simplex iterations) in 10.06 seconds (11.39 work units)
Thread count was 6 (of 12 available processors)

Solution count 10: 446.901 461.26 475.337 ... 676.635

Time limit reached
Best objective 4.469005194783e+02, best bound 2.925485459750e+02, gap 34.5383%

